bestever    1691    in generation 0
[13, 7, 12, 10, 9, 14, 3, 6, 8, 2, 1, 20, 16, 4, 19, 11, 5, 15, 17, 18, 13, 7, 12, 10, 9, 14, 3, 6, 8, 2, 1, 20, 16, 4, 19, 11, 5, 15, 17, 18, 13, 7, 12, 10, 9, 14, 3, 6, 8, 2, 1, 20, 16, 4, 19, 11, 5, 15, 17, 18, 13, 7, 12, 10, 9, 14, 3, 6, 8, 2, 1, 20, 16, 4, 19, 11, 5, 15, 17, 18, 13, 7, 12, 10, 9, 14, 3, 6, 8, 2, 1, 20, 16, 4, 19, 11, 5, 15, 17, 18, 13, 7, 12, 10, 9, 14, 3, 6, 8, 2, 1, 20, 16, 4, 19, 11, 5, 15, 17, 18, 13, 7, 12, 10, 9, 14, 3, 6, 8, 2, 1, 20, 16, 4, 19, 11, 5, 15, 17, 18, 13, 7, 12, 10, 9, 14, 3, 6, 8, 2, 1, 20, 16, 4, 19, 11, 5, 15, 17, 18, 13, 7, 12, 10, 9, 14, 3, 6, 8, 2, 1, 20, 16, 4, 19, 11, 5, 15, 17, 18, 13, 7, 12, 10, 9, 14, 3, 6, 8, 2, 1, 20, 16, 4, 19, 11, 5, 15, 17, 18]
bestever    1646    in generation 103
[13, 12, 10, 9, 7, 14, 3, 6, 8, 2, 1, 20, 16, 4, 19, 11, 5, 15, 17, 18, 13, 12, 10, 9, 7, 14, 3, 6, 8, 2, 1, 20, 16, 4, 19, 11, 5, 15, 17, 18, 13, 12, 10, 9, 7, 14, 3, 6, 8, 2, 1, 20, 16, 4, 19, 11, 5, 15, 17, 18, 13, 12, 10, 9, 7, 14, 3, 6, 8, 2, 1, 20, 16, 4, 19, 11, 5, 15, 17, 18, 13, 12, 10, 9, 7, 14, 3, 6, 8, 2, 1, 20, 16, 4, 19, 11, 5, 15, 17, 18, 13, 12, 10, 9, 7, 14, 3, 6, 8, 2, 1, 20, 16, 4, 19, 11, 5, 15, 17, 18, 13, 12, 10, 9, 7, 14, 3, 6, 8, 2, 1, 20, 16, 4, 19, 11, 5, 15, 17, 18, 13, 12, 10, 9, 7, 14, 3, 6, 8, 2, 1, 20, 16, 4, 19, 11, 5, 15, 17, 18, 13, 12, 10, 9, 7, 14, 3, 6, 8, 2, 1, 20, 16, 4, 19, 11, 5, 15, 17, 18, 13, 12, 10, 9, 7, 14, 3, 6, 8, 2, 1, 20, 16, 4, 19, 11, 5, 15, 17, 18]
bestever    1642    in generation 199
[13, 12, 10, 7, 9, 14, 3, 6, 8, 2, 1, 20, 16, 4, 19, 11, 13, 12, 13, 12, 10, 7, 9, 14, 3, 6, 8, 2, 1, 20, 16, 4, 5, 15, 17, 10, 13, 12, 7, 9, 14, 3, 6, 8, 2, 1, 20, 16, 4, 19, 11, 5, 15, 17, 18, 10, 7, 9, 14, 3, 6, 8, 2, 1, 20, 13, 12, 10, 7, 9, 14, 4, 3, 6, 8, 2, 1, 20, 19, 11, 5, 15, 17, 18, 13, 12, 10, 7, 13, 12, 10, 7, 9, 14, 3, 6, 8, 2, 1, 20, 16, 4, 9, 14, 3, 6, 8, 2, 1, 20, 16, 4, 19, 11, 5, 15, 17, 18, 19, 11, 5, 15, 17, 18, 16, 18, 19, 11, 5, 15, 17, 18, 16, 4, 19, 11, 5, 13, 12, 10, 7, 9, 14, 3, 6, 8, 2, 1, 20, 16, 4, 19, 11, 5, 15, 17, 18, 15, 17, 18, 13, 12, 10, 7, 9, 14, 3, 6, 8, 2, 1, 20, 16, 4, 19, 11, 5, 15, 17, 18, 13, 12, 10, 7, 9, 14, 3, 6, 8, 2, 1, 20, 16, 4, 19, 11, 5, 15, 17, 18]
bestever    1630    in generation 301
[13, 10, 12, 7, 9, 14, 3, 6, 8, 2, 1, 20, 16, 4, 19, 11, 5, 15, 17, 18, 13, 10, 12, 7, 9, 14, 3, 6, 8, 2, 1, 16, 4, 20, 19, 11, 5, 15, 17, 18, 13, 10, 12, 7, 9, 14, 3, 6, 8, 2, 1, 20, 4, 16, 19, 11, 5, 15, 17, 18, 13, 10, 12, 7, 9, 14, 3, 6, 8, 2, 1, 20, 4, 16, 19, 11, 5, 15, 17, 18, 13, 10, 12, 7, 9, 14, 3, 6, 8, 2, 1, 20, 4, 16, 19, 11, 5, 15, 17, 18, 13, 10, 12, 7, 9, 14, 3, 6, 8, 2, 1, 20, 4, 16, 19, 11, 5, 15, 17, 18, 13, 10, 12, 7, 9, 14, 3, 6, 8, 2, 1, 20, 16, 4, 19, 11, 5, 15, 17, 18, 13, 10, 12, 7, 9, 14, 3, 6, 8, 2, 1, 20, 16, 4, 19, 11, 5, 15, 17, 18, 13, 10, 12, 7, 9, 14, 3, 6, 8, 2, 1, 20, 16, 4, 19, 11, 5, 15, 17, 18, 13, 10, 12, 7, 9, 14, 3, 6, 8, 2, 1, 20, 16, 4, 19, 11, 5, 15, 17, 18]
bestever    1620    in generation 403
[13, 10, 12, 7, 9, 14, 6, 8, 3, 2, 1, 20, 16, 4, 19, 11, 5, 15, 17, 18, 13, 10, 12, 7, 9, 14, 6, 8, 3, 2, 1, 16, 4, 20, 19, 11, 5, 15, 17, 18, 13, 10, 12, 7, 9, 14, 6, 8, 3, 2, 1, 20, 4, 16, 19, 11, 5, 15, 17, 18, 13, 10, 12, 7, 9, 14, 6, 8, 3, 2, 1, 20, 4, 16, 19, 11, 5, 15, 17, 18, 13, 10, 12, 7, 9, 14, 6, 8, 3, 2, 1, 20, 4, 16, 19, 11, 5, 15, 17, 18, 13, 10, 12, 7, 9, 14, 6, 8, 3, 2, 1, 20, 4, 16, 19, 11, 5, 15, 17, 18, 13, 10, 12, 7, 9, 14, 6, 8, 3, 2, 1, 20, 16, 4, 19, 11, 5, 15, 17, 18, 13, 10, 12, 7, 9, 14, 6, 8, 3, 2, 1, 20, 16, 4, 19, 11, 5, 15, 17, 18, 13, 10, 12, 7, 9, 14, 6, 8, 3, 2, 1, 20, 16, 4, 19, 11, 5, 15, 17, 18, 13, 10, 12, 7, 9, 14, 6, 8, 3, 2, 1, 20, 16, 4, 19, 11, 5, 15, 17, 18]
bestever    1619    in generation 506
[13, 10, 12, 7, 9, 14, 6, 8, 3, 2, 1, 20, 16, 4, 19, 5, 11, 15, 18, 17, 13, 10, 12, 7, 9, 14, 6, 8, 3, 2, 1, 20, 4, 16, 19, 5, 11, 15, 18, 17, 13, 10, 12, 7, 9, 14, 6, 8, 3, 2, 1, 20, 4, 16, 19, 5, 11, 15, 18, 17, 13, 10, 12, 7, 9, 14, 6, 8, 3, 2, 1, 20, 4, 16, 19, 5, 11, 15, 18, 17, 13, 10, 12, 7, 9, 14, 6, 8, 3, 2, 1, 20, 4, 16, 19, 5, 11, 15, 18, 17, 13, 10, 12, 7, 9, 14, 6, 8, 3, 2, 1, 20, 16, 4, 19, 5, 11, 15, 18, 17, 13, 10, 12, 7, 9, 14, 6, 8, 3, 2, 1, 20, 4, 16, 19, 5, 11, 15, 18, 17, 13, 10, 12, 7, 9, 14, 6, 8, 3, 2, 1, 20, 4, 16, 19, 5, 11, 15, 18, 17, 13, 10, 12, 7, 9, 14, 6, 8, 3, 2, 1, 20, 4, 16, 19, 5, 11, 15, 18, 17, 13, 10, 12, 7, 9, 14, 6, 8, 3, 2, 1, 20, 4, 16, 19, 5, 11, 15, 18, 17]
bestever    1614    in generation 611
[13, 10, 12, 9, 7, 14, 6, 8, 3, 2, 1, 20, 16, 4, 19, 5, 11, 15, 18, 17, 13, 10, 12, 9, 7, 14, 6, 8, 3, 2, 1, 20, 4, 16, 19, 5, 11, 15, 18, 17, 13, 10, 12, 9, 7, 14, 6, 8, 3, 2, 1, 20, 4, 16, 19, 5, 11, 15, 18, 17, 13, 10, 12, 9, 7, 14, 6, 8, 3, 2, 1, 20, 4, 16, 19, 5, 11, 15, 18, 17, 13, 10, 12, 9, 7, 14, 6, 8, 3, 2, 1, 20, 4, 16, 19, 5, 11, 15, 18, 17, 13, 10, 12, 9, 7, 14, 6, 8, 3, 2, 1, 20, 16, 4, 19, 5, 11, 15, 18, 17, 13, 10, 12, 9, 7, 14, 6, 8, 3, 2, 1, 20, 4, 16, 19, 5, 11, 15, 18, 17, 13, 10, 12, 9, 7, 14, 6, 8, 3, 2, 1, 20, 4, 16, 19, 5, 11, 15, 18, 17, 13, 10, 12, 9, 7, 14, 6, 8, 3, 2, 1, 20, 4, 16, 19, 5, 11, 15, 18, 17, 13, 10, 12, 9, 7, 14, 6, 8, 3, 2, 1, 20, 4, 16, 19, 5, 11, 15, 18, 17]
bestever    1608    in generation 714
[13, 10, 12, 9, 7, 14, 6, 8, 3, 2, 16, 1, 20, 4, 19, 5, 11, 15, 18, 17, 13, 10, 12, 9, 7, 14, 6, 8, 3, 2, 16, 1, 20, 4, 19, 5, 11, 15, 18, 17, 13, 10, 12, 9, 7, 14, 6, 8, 3, 2, 16, 1, 20, 4, 19, 5, 11, 15, 18, 17, 13, 10, 12, 9, 7, 14, 6, 8, 3, 2, 16, 1, 20, 4, 19, 5, 11, 15, 18, 17, 13, 10, 12, 9, 7, 14, 6, 8, 3, 2, 16, 1, 20, 4, 19, 5, 11, 15, 18, 17, 13, 10, 12, 9, 7, 14, 6, 8, 3, 2, 16, 1, 20, 4, 19, 5, 11, 15, 18, 17, 13, 10, 12, 9, 7, 14, 6, 8, 3, 2, 16, 1, 20, 4, 19, 5, 11, 15, 18, 17, 13, 10, 12, 9, 7, 14, 6, 8, 3, 2, 16, 1, 20, 4, 19, 5, 11, 15, 18, 17, 13, 10, 12, 9, 7, 14, 6, 8, 3, 2, 16, 1, 20, 4, 19, 5, 11, 15, 18, 17, 13, 10, 12, 9, 7, 14, 6, 8, 3, 2, 16, 1, 20, 4, 19, 5, 11, 15, 18, 17]
bestever    1593    in generation 817
[13, 10, 12, 9, 14, 6, 8, 3, 2, 16, 1, 20, 4, 19, 5, 11, 15, 18, 17, 7, 13, 10, 12, 9, 14, 6, 8, 3, 2, 16, 1, 20, 4, 19, 5, 11, 15, 18, 17, 7, 13, 10, 12, 9, 14, 6, 8, 3, 2, 16, 1, 20, 4, 19, 5, 11, 15, 18, 17, 7, 13, 10, 12, 9, 14, 6, 8, 3, 2, 16, 1, 20, 4, 19, 5, 11, 15, 18, 17, 7, 13, 10, 12, 9, 14, 6, 8, 3, 2, 16, 1, 20, 4, 19, 5, 11, 15, 18, 17, 7, 13, 10, 12, 9, 14, 6, 8, 3, 2, 16, 1, 20, 4, 19, 5, 11, 15, 18, 17, 7, 13, 10, 12, 9, 14, 6, 8, 3, 2, 16, 1, 20, 4, 19, 5, 11, 15, 18, 17, 7, 13, 10, 12, 9, 14, 6, 8, 3, 2, 16, 1, 20, 4, 19, 5, 11, 15, 18, 17, 7, 13, 10, 12, 9, 14, 6, 8, 3, 2, 16, 1, 20, 4, 19, 5, 11, 15, 18, 17, 7, 13, 10, 12, 9, 14, 6, 8, 3, 2, 16, 1, 20, 4, 19, 5, 11, 15, 18, 17, 7]
bestever    1589    in generation 920
[13, 10, 12, 14, 9, 6, 8, 3, 2, 16, 1, 20, 4, 19, 5, 11, 15, 18, 17, 7, 13, 10, 12, 14, 9, 6, 8, 3, 2, 16, 1, 20, 4, 19, 5, 11, 15, 18, 17, 7, 13, 10, 12, 14, 9, 6, 8, 3, 2, 16, 1, 20, 4, 19, 5, 11, 15, 18, 17, 7, 13, 10, 12, 14, 9, 6, 8, 3, 2, 16, 1, 20, 4, 19, 5, 11, 15, 18, 17, 7, 13, 10, 12, 14, 9, 6, 8, 3, 2, 16, 1, 20, 4, 19, 5, 11, 15, 18, 17, 7, 13, 10, 12, 14, 9, 6, 8, 3, 2, 16, 1, 20, 4, 19, 5, 11, 15, 18, 17, 7, 13, 10, 12, 14, 9, 6, 8, 3, 2, 16, 1, 20, 4, 19, 5, 11, 15, 18, 17, 7, 13, 10, 12, 14, 9, 6, 8, 3, 2, 16, 1, 20, 4, 19, 5, 11, 15, 18, 17, 7, 13, 10, 12, 14, 9, 6, 8, 3, 2, 16, 1, 20, 4, 19, 5, 11, 15, 18, 17, 7, 13, 10, 12, 14, 9, 6, 8, 3, 2, 16, 1, 20, 4, 19, 5, 11, 15, 18, 17, 7]
bestever    1586    in generation 1023
[13, 10, 12, 14, 9, 6, 8, 3, 2, 16, 1, 20, 4, 19, 18, 5, 11, 15, 17, 7, 13, 10, 12, 14, 9, 6, 8, 3, 2, 16, 1, 20, 4, 19, 18, 5, 11, 15, 17, 7, 13, 10, 12, 14, 9, 6, 8, 3, 2, 16, 1, 20, 4, 19, 18, 5, 11, 15, 17, 7, 13, 10, 12, 14, 9, 6, 8, 3, 2, 16, 1, 20, 4, 19, 18, 5, 11, 15, 17, 7, 13, 10, 12, 14, 9, 6, 8, 3, 2, 16, 1, 20, 4, 19, 18, 5, 11, 15, 17, 7, 13, 10, 12, 14, 9, 6, 8, 3, 2, 16, 1, 20, 4, 19, 18, 5, 11, 15, 17, 7, 13, 10, 12, 14, 9, 6, 8, 3, 2, 16, 1, 20, 4, 19, 18, 5, 11, 15, 17, 7, 13, 10, 12, 14, 9, 6, 8, 3, 2, 16, 1, 20, 4, 19, 18, 5, 11, 15, 17, 7, 13, 10, 12, 14, 9, 6, 8, 3, 2, 16, 1, 20, 4, 19, 18, 5, 11, 15, 17, 7, 13, 10, 12, 14, 9, 6, 8, 3, 2, 16, 1, 20, 4, 19, 18, 5, 11, 15, 17, 7]
bestever    1575    in generation 1125
[13, 10, 12, 14, 9, 8, 3, 2, 6, 16, 1, 20, 4, 19, 18, 5, 11, 15, 17, 7, 13, 10, 12, 14, 9, 8, 3, 2, 6, 16, 1, 20, 4, 19, 18, 5, 11, 15, 17, 7, 13, 10, 12, 14, 9, 8, 3, 2, 6, 16, 1, 20, 4, 19, 18, 5, 11, 15, 17, 7, 13, 10, 12, 14, 9, 8, 3, 2, 6, 16, 1, 20, 4, 19, 18, 5, 11, 15, 17, 7, 13, 10, 12, 14, 9, 8, 3, 2, 6, 16, 1, 20, 4, 19, 18, 5, 11, 15, 17, 7, 13, 10, 12, 14, 9, 8, 3, 2, 6, 16, 1, 20, 4, 19, 18, 5, 11, 15, 17, 7, 13, 10, 12, 14, 9, 8, 3, 2, 6, 16, 1, 20, 4, 19, 18, 5, 11, 15, 17, 7, 13, 10, 12, 14, 9, 8, 3, 2, 6, 16, 1, 20, 4, 19, 18, 5, 11, 15, 17, 7, 13, 10, 12, 14, 9, 8, 3, 2, 6, 16, 1, 20, 4, 19, 18, 5, 11, 15, 17, 7, 13, 10, 12, 14, 9, 8, 3, 2, 6, 16, 1, 20, 4, 19, 18, 5, 11, 15, 17, 7]
bestever    1567    in generation 1231
[13, 10, 12, 14, 9, 8, 3, 2, 6, 1, 20, 4, 19, 16, 18, 5, 11, 15, 17, 7, 13, 10, 12, 14, 9, 8, 3, 2, 6, 1, 20, 4, 19, 16, 18, 5, 11, 15, 17, 7, 13, 10, 12, 14, 9, 8, 3, 2, 6, 1, 20, 4, 19, 16, 18, 5, 11, 15, 17, 7, 13, 10, 12, 14, 9, 8, 3, 2, 6, 1, 20, 4, 19, 16, 18, 5, 11, 15, 17, 7, 13, 10, 12, 14, 9, 8, 3, 2, 6, 1, 20, 4, 19, 16, 18, 5, 11, 15, 17, 7, 13, 10, 12, 14, 9, 8, 3, 2, 6, 1, 20, 4, 19, 16, 18, 5, 11, 15, 17, 7, 13, 10, 12, 14, 9, 8, 3, 2, 6, 1, 20, 4, 19, 16, 18, 5, 11, 15, 17, 7, 13, 10, 12, 14, 9, 8, 3, 2, 6, 1, 20, 4, 19, 16, 18, 5, 11, 15, 17, 7, 13, 10, 12, 14, 9, 8, 3, 2, 6, 1, 20, 4, 19, 16, 18, 5, 11, 15, 17, 7, 13, 10, 12, 14, 9, 8, 3, 2, 6, 1, 20, 4, 19, 16, 18, 5, 11, 15, 17, 7]
bestever    1549    in generation 1338
[13, 10, 12, 14, 9, 8, 3, 2, 6, 1, 4, 20, 19, 16, 18, 5, 11, 15, 17, 7, 13, 10, 12, 14, 9, 8, 3, 2, 6, 1, 4, 20, 19, 16, 18, 5, 11, 15, 17, 7, 13, 10, 12, 14, 9, 8, 3, 2, 6, 1, 4, 20, 19, 16, 18, 5, 11, 15, 17, 7, 13, 10, 12, 14, 9, 8, 3, 2, 6, 1, 4, 20, 19, 16, 18, 5, 11, 15, 17, 7, 13, 10, 12, 14, 9, 8, 3, 2, 6, 1, 4, 20, 19, 16, 18, 5, 11, 15, 17, 7, 13, 10, 12, 14, 9, 8, 3, 2, 6, 1, 4, 20, 19, 16, 18, 5, 11, 15, 17, 7, 13, 10, 12, 14, 9, 8, 3, 2, 6, 1, 4, 20, 19, 16, 18, 5, 11, 15, 17, 7, 13, 10, 12, 14, 9, 8, 3, 2, 6, 1, 4, 20, 19, 16, 18, 5, 11, 15, 17, 7, 13, 10, 12, 14, 9, 8, 3, 2, 6, 1, 4, 20, 19, 16, 18, 5, 11, 15, 17, 7, 13, 10, 12, 14, 9, 8, 3, 2, 6, 1, 4, 20, 19, 16, 18, 5, 11, 15, 17, 7]
bestever    1548    in generation 1934
[13, 10, 9, 12, 14, 3, 2, 8, 6, 1, 4, 20, 19, 16, 18, 5, 11, 15, 17, 7, 13, 9, 10, 12, 14, 3, 2, 8, 6, 1, 4, 20, 19, 16, 18, 5, 11, 15, 17, 7, 13, 9, 10, 12, 14, 3, 2, 8, 6, 1, 4, 20, 19, 16, 18, 5, 11, 15, 17, 7, 13, 10, 9, 12, 14, 3, 2, 8, 6, 1, 4, 20, 19, 16, 18, 5, 11, 15, 17, 7, 13, 10, 9, 12, 14, 3, 2, 8, 6, 1, 4, 20, 19, 16, 18, 5, 11, 15, 17, 7, 13, 10, 9, 12, 14, 3, 2, 8, 6, 1, 4, 20, 19, 16, 18, 5, 11, 15, 17, 7, 13, 10, 9, 12, 14, 3, 2, 8, 6, 1, 4, 20, 19, 16, 18, 5, 11, 15, 17, 7, 13, 10, 9, 12, 14, 3, 2, 8, 6, 1, 4, 20, 19, 16, 18, 5, 11, 15, 17, 7, 13, 10, 9, 12, 14, 3, 2, 8, 6, 1, 4, 20, 19, 16, 18, 5, 11, 15, 17, 7, 13, 10, 9, 12, 14, 3, 2, 8, 6, 1, 4, 20, 19, 16, 18, 5, 11, 15, 17, 7]
bestever    1547    in generation 2071
[16, 13, 10, 9, 12, 14, 3, 2, 8, 6, 1, 4, 20, 19, 18, 5, 11, 15, 17, 7, 16, 13, 9, 10, 12, 14, 3, 2, 8, 6, 1, 4, 20, 19, 18, 5, 11, 15, 7, 17, 16, 13, 9, 10, 12, 14, 3, 2, 8, 6, 1, 4, 20, 19, 18, 5, 11, 15, 17, 7, 16, 13, 10, 9, 12, 14, 3, 2, 8, 6, 1, 4, 20, 19, 18, 5, 11, 15, 17, 7, 16, 13, 10, 9, 12, 14, 3, 2, 8, 6, 1, 4, 20, 19, 18, 5, 11, 15, 17, 7, 16, 13, 10, 9, 12, 14, 3, 2, 8, 6, 1, 4, 20, 19, 18, 5, 11, 15, 17, 7, 16, 13, 10, 9, 12, 14, 3, 2, 8, 6, 1, 4, 20, 19, 18, 5, 11, 15, 17, 7, 16, 13, 10, 9, 12, 14, 3, 2, 8, 6, 1, 4, 20, 19, 18, 5, 11, 15, 17, 7, 16, 13, 10, 9, 12, 14, 3, 2, 8, 6, 1, 4, 20, 19, 18, 5, 11, 15, 17, 7, 16, 13, 10, 9, 12, 14, 3, 2, 8, 6, 1, 4, 20, 19, 18, 5, 11, 15, 17, 7]
bestever    1538    in generation 2159
[16, 13, 10, 9, 12, 14, 3, 2, 8, 6, 1, 4, 20, 19, 16, 18, 16, 13, 10, 9, 12, 14, 3, 2, 8, 6, 1, 4, 20, 19, 18, 16, 13, 10, 9, 12, 13, 10, 9, 12, 14, 3, 2, 8, 6, 1, 4, 20, 18, 5, 11, 14, 3, 2, 16, 13, 8, 6, 1, 4, 20, 19, 18, 15, 17, 7, 16, 13, 10, 9, 12, 14, 3, 2, 8, 6, 1, 4, 10, 9, 12, 14, 3, 2, 8, 6, 1, 4, 20, 19, 18, 5, 11, 15, 17, 7, 20, 19, 5, 11, 15, 17, 7, 18, 5, 11, 15, 17, 7, 16, 13, 10, 9, 12, 14, 3, 2, 8, 6, 1, 5, 11, 15, 17, 7, 16, 16, 13, 19, 5, 11, 15, 17, 7, 10, 9, 12, 14, 3, 2, 8, 6, 13, 10, 1, 4, 20, 19, 18, 5, 11, 15, 17, 7, 9, 12, 14, 3, 2, 8, 6, 1, 4, 20, 19, 18, 5, 11, 15, 17, 7, 4, 20, 19, 18, 5, 11, 15, 17, 7, 16, 13, 10, 9, 12, 14, 3, 2, 8, 6, 1, 4, 20, 19, 18, 5, 11, 15, 17, 7]
bestever    1533    in generation 2266
[16, 13, 10, 9, 12, 14, 3, 2, 8, 1, 4, 20, 19, 18, 5, 11, 15, 17, 6, 7, 16, 13, 10, 9, 12, 14, 3, 2, 8, 1, 4, 20, 19, 18, 5, 11, 15, 17, 6, 7, 16, 13, 10, 9, 12, 14, 3, 2, 8, 1, 4, 20, 18, 19, 5, 11, 15, 17, 6, 7, 16, 13, 10, 9, 12, 14, 3, 2, 8, 1, 4, 20, 18, 19, 5, 11, 15, 17, 6, 7, 16, 13, 10, 9, 12, 14, 3, 2, 8, 1, 4, 20, 18, 19, 5, 11, 15, 17, 6, 7, 16, 13, 10, 9, 12, 14, 3, 2, 8, 1, 4, 20, 19, 18, 5, 11, 15, 17, 6, 7, 16, 13, 10, 9, 12, 14, 3, 2, 8, 1, 4, 20, 19, 18, 5, 11, 15, 17, 6, 7, 16, 13, 10, 9, 12, 14, 3, 2, 8, 1, 4, 20, 19, 18, 5, 11, 15, 17, 6, 7, 16, 13, 10, 9, 12, 14, 3, 2, 8, 1, 4, 20, 19, 18, 5, 11, 15, 17, 6, 7, 16, 13, 10, 9, 12, 14, 3, 2, 8, 1, 4, 20, 19, 18, 5, 11, 15, 17, 6, 7]
bestever    1518    in generation 2371
[16, 13, 10, 9, 12, 14, 3, 2, 8, 1, 4, 20, 19, 18, 5, 11, 15, 17, 7, 6, 16, 13, 10, 9, 12, 14, 3, 2, 8, 1, 4, 20, 19, 18, 5, 11, 15, 17, 7, 6, 16, 13, 10, 9, 12, 14, 3, 2, 8, 1, 4, 20, 18, 19, 5, 11, 15, 17, 7, 6, 16, 13, 10, 9, 12, 14, 3, 2, 8, 1, 4, 20, 18, 19, 5, 11, 15, 17, 7, 6, 16, 13, 10, 9, 12, 14, 3, 2, 8, 1, 4, 20, 18, 19, 5, 11, 15, 17, 7, 6, 16, 13, 10, 9, 12, 14, 3, 2, 8, 1, 4, 20, 19, 18, 5, 11, 15, 17, 7, 6, 16, 13, 10, 9, 12, 14, 3, 2, 8, 1, 4, 20, 19, 18, 5, 11, 15, 17, 7, 6, 16, 13, 10, 9, 12, 14, 3, 2, 8, 1, 4, 20, 19, 18, 5, 11, 15, 17, 7, 6, 16, 13, 10, 9, 12, 14, 3, 2, 8, 1, 4, 20, 19, 18, 5, 11, 15, 17, 7, 6, 16, 13, 10, 9, 12, 14, 3, 2, 8, 1, 4, 20, 18, 19, 5, 11, 15, 17, 7, 6]
bestever    1501    in generation 2473
[16, 13, 10, 9, 12, 14, 3, 1, 2, 8, 4, 20, 19, 18, 5, 11, 15, 17, 6, 7, 16, 13, 10, 9, 12, 14, 3, 1, 2, 8, 4, 20, 19, 18, 5, 11, 15, 17, 6, 7, 16, 13, 10, 9, 12, 14, 3, 1, 2, 8, 4, 20, 19, 18, 5, 11, 15, 17, 7, 6, 16, 13, 10, 9, 12, 14, 3, 1, 2, 8, 4, 20, 19, 18, 5, 11, 15, 17, 7, 6, 16, 13, 10, 9, 12, 14, 3, 1, 2, 8, 4, 20, 18, 19, 5, 11, 15, 17, 7, 6, 16, 13, 10, 9, 12, 14, 3, 1, 2, 8, 4, 20, 19, 18, 5, 11, 15, 17, 7, 6, 16, 13, 10, 9, 12, 14, 3, 1, 2, 8, 4, 20, 19, 18, 5, 11, 15, 17, 7, 6, 16, 13, 10, 9, 12, 14, 3, 1, 2, 8, 4, 20, 19, 18, 5, 11, 15, 17, 7, 6, 16, 13, 10, 9, 12, 14, 3, 1, 2, 8, 4, 20, 19, 18, 5, 11, 15, 17, 7, 6, 16, 13, 10, 9, 12, 14, 3, 1, 2, 8, 4, 20, 19, 18, 5, 11, 15, 17, 7, 6]
bestever    1498    in generation 2479
[16, 13, 10, 9, 12, 14, 3, 1, 2, 8, 4, 20, 19, 18, 5, 11, 15, 17, 6, 7, 16, 13, 10, 9, 12, 14, 3, 1, 2, 8, 4, 20, 19, 18, 5, 11, 15, 17, 6, 7, 16, 13, 10, 9, 12, 14, 3, 1, 2, 8, 4, 20, 19, 18, 5, 11, 15, 17, 7, 6, 16, 13, 10, 9, 12, 14, 3, 1, 2, 8, 4, 20, 19, 18, 5, 11, 15, 17, 7, 6, 16, 13, 10, 9, 12, 14, 3, 1, 16, 13, 10, 9, 12, 14, 3, 1, 2, 8, 4, 20, 19, 18, 5, 11, 15, 17, 7, 6, 2, 8, 4, 20, 19, 18, 5, 11, 15, 17, 7, 6, 16, 13, 10, 9, 12, 14, 3, 1, 2, 8, 4, 20, 19, 18, 5, 11, 15, 17, 7, 6, 16, 13, 10, 9, 12, 14, 3, 1, 2, 8, 4, 20, 19, 18, 5, 11, 15, 17, 7, 6, 16, 13, 10, 9, 12, 14, 3, 1, 2, 8, 4, 20, 19, 18, 5, 11, 15, 17, 7, 6, 16, 13, 10, 9, 12, 14, 3, 1, 2, 8, 4, 20, 19, 18, 5, 11, 15, 17, 7, 6]
bestever    1495    in generation 2588
[14, 16, 13, 9, 12, 10, 3, 1, 2, 8, 4, 20, 19, 18, 5, 11, 15, 17, 7, 6, 14, 16, 13, 9, 12, 10, 3, 1, 2, 8, 4, 20, 19, 18, 5, 11, 15, 17, 7, 6, 14, 16, 13, 9, 12, 10, 3, 1, 2, 8, 4, 20, 19, 18, 5, 11, 15, 17, 7, 6, 14, 16, 13, 9, 12, 10, 3, 1, 2, 8, 4, 20, 19, 18, 5, 11, 15, 17, 7, 6, 14, 16, 13, 9, 12, 10, 3, 1, 2, 8, 4, 20, 19, 18, 5, 11, 15, 17, 7, 6, 14, 16, 13, 9, 12, 10, 3, 1, 2, 8, 4, 20, 19, 18, 5, 11, 15, 17, 7, 6, 14, 16, 13, 9, 12, 10, 3, 1, 2, 8, 4, 20, 19, 18, 5, 11, 15, 17, 7, 6, 14, 16, 13, 9, 12, 10, 3, 1, 2, 8, 4, 20, 19, 18, 5, 11, 15, 17, 7, 6, 14, 16, 13, 9, 12, 10, 3, 1, 2, 8, 4, 20, 19, 18, 5, 11, 15, 17, 7, 6, 14, 16, 13, 9, 12, 10, 3, 1, 2, 8, 4, 20, 19, 18, 5, 11, 15, 17, 7, 6]
bestever    1493    in generation 2704
[16, 14, 13, 9, 12, 10, 3, 1, 2, 8, 4, 20, 19, 18, 15, 5, 11, 17, 7, 6, 16, 14, 13, 9, 12, 10, 3, 1, 2, 8, 4, 20, 19, 18, 15, 5, 11, 17, 7, 6, 16, 14, 13, 9, 12, 10, 3, 1, 2, 8, 4, 20, 19, 18, 15, 5, 11, 17, 7, 6, 16, 14, 13, 9, 12, 10, 3, 1, 2, 8, 4, 20, 19, 18, 15, 5, 11, 17, 7, 6, 16, 14, 13, 9, 12, 10, 3, 1, 2, 8, 4, 20, 19, 18, 15, 5, 11, 17, 7, 6, 16, 14, 13, 9, 12, 10, 3, 1, 2, 8, 4, 20, 19, 18, 15, 5, 11, 17, 7, 6, 16, 14, 13, 9, 12, 10, 3, 1, 2, 8, 4, 20, 19, 18, 15, 5, 11, 17, 7, 6, 16, 14, 13, 9, 12, 10, 3, 1, 2, 8, 4, 20, 19, 18, 15, 5, 11, 17, 7, 6, 16, 14, 13, 9, 12, 10, 3, 1, 2, 8, 4, 20, 19, 18, 15, 5, 11, 17, 7, 6, 16, 14, 13, 9, 12, 10, 3, 1, 2, 8, 4, 20, 19, 18, 15, 5, 11, 17, 7, 6]
bestever    1481    in generation 2814
[16, 14, 13, 9, 12, 3, 10, 1, 8, 2, 4, 20, 19, 18, 15, 5, 11, 17, 7, 6, 16, 14, 13, 9, 12, 3, 10, 1, 8, 2, 4, 20, 19, 18, 15, 5, 11, 17, 7, 6, 16, 14, 13, 9, 12, 3, 10, 1, 8, 2, 4, 20, 19, 18, 15, 5, 11, 17, 7, 6, 14, 16, 13, 9, 12, 3, 10, 1, 8, 2, 4, 20, 19, 18, 15, 5, 11, 17, 7, 6, 16, 14, 13, 9, 12, 3, 10, 1, 8, 2, 4, 20, 19, 18, 15, 5, 11, 17, 7, 6, 16, 14, 13, 9, 12, 3, 10, 1, 8, 2, 4, 20, 19, 18, 15, 5, 11, 17, 7, 6, 16, 14, 13, 9, 12, 3, 10, 1, 8, 2, 4, 20, 19, 18, 15, 5, 11, 17, 7, 6, 16, 14, 13, 9, 12, 3, 10, 1, 8, 2, 4, 20, 19, 18, 15, 5, 11, 17, 7, 6, 16, 14, 13, 9, 12, 3, 10, 1, 8, 2, 4, 20, 19, 18, 15, 5, 11, 17, 7, 6, 16, 14, 13, 9, 12, 3, 10, 1, 8, 2, 4, 20, 19, 18, 15, 5, 11, 17, 7, 6]
bestever    1475    in generation 3669
[16, 14, 13, 9, 10, 12, 2, 3, 8, 4, 20, 19, 1, 18, 15, 5, 11, 17, 7, 6, 16, 14, 13, 9, 10, 12, 2, 3, 8, 4, 20, 19, 1, 18, 15, 5, 11, 17, 7, 6, 16, 14, 13, 9, 10, 12, 3, 2, 8, 4, 20, 19, 1, 18, 15, 5, 11, 17, 7, 6, 16, 14, 13, 9, 10, 12, 2, 3, 8, 4, 20, 19, 1, 18, 15, 5, 11, 17, 7, 6, 16, 14, 13, 9, 10, 12, 2, 3, 8, 4, 20, 19, 1, 18, 15, 5, 11, 17, 7, 6, 16, 14, 9, 13, 10, 12, 3, 2, 8, 4, 20, 19, 1, 18, 15, 5, 11, 17, 7, 6, 16, 14, 9, 13, 10, 12, 3, 2, 8, 4, 20, 19, 1, 18, 15, 5, 11, 17, 7, 6, 16, 14, 9, 13, 10, 12, 3, 2, 8, 4, 20, 19, 1, 18, 15, 5, 11, 17, 7, 6, 16, 14, 13, 9, 10, 12, 3, 2, 8, 4, 20, 19, 1, 18, 15, 5, 11, 17, 7, 6, 16, 14, 9, 13, 10, 12, 3, 2, 8, 4, 20, 19, 1, 18, 15, 5, 11, 17, 7, 6]
bestever    1472    in generation 3801
[16, 14, 13, 9, 10, 12, 2, 3, 8, 4, 20, 19, 5, 1, 18, 15, 11, 17, 7, 6, 16, 14, 13, 9, 10, 12, 2, 3, 8, 4, 20, 19, 5, 1, 18, 15, 11, 17, 7, 6, 16, 14, 13, 9, 10, 12, 3, 2, 8, 4, 20, 19, 5, 1, 18, 15, 11, 17, 7, 6, 16, 14, 13, 9, 10, 12, 3, 2, 8, 4, 20, 19, 5, 1, 18, 15, 11, 17, 7, 6, 16, 14, 13, 9, 10, 12, 3, 2, 8, 4, 20, 19, 5, 1, 18, 15, 11, 17, 7, 6, 16, 14, 9, 13, 10, 12, 3, 2, 8, 4, 20, 19, 5, 1, 18, 15, 11, 17, 7, 6, 16, 14, 9, 13, 10, 12, 3, 2, 8, 4, 20, 19, 5, 1, 18, 15, 11, 17, 7, 6, 16, 14, 9, 13, 10, 12, 3, 2, 8, 4, 20, 19, 5, 1, 18, 15, 11, 17, 7, 6, 16, 14, 13, 9, 10, 12, 3, 2, 8, 4, 20, 19, 5, 1, 18, 15, 11, 17, 7, 6, 16, 14, 9, 13, 10, 12, 3, 2, 8, 4, 20, 19, 5, 1, 18, 15, 11, 17, 7, 6]
bestever    1468    in generation 3931
[16, 14, 13, 9, 10, 12, 2, 3, 4, 20, 19, 8, 5, 1, 18, 15, 11, 17, 7, 6, 16, 14, 13, 9, 10, 12, 2, 3, 4, 20, 19, 8, 5, 1, 18, 15, 11, 17, 7, 6, 16, 14, 13, 9, 10, 12, 3, 2, 4, 20, 19, 8, 5, 1, 18, 15, 11, 17, 7, 6, 16, 14, 13, 9, 10, 12, 3, 2, 4, 20, 19, 8, 5, 1, 18, 15, 11, 17, 7, 6, 16, 14, 13, 9, 10, 12, 3, 2, 4, 20, 19, 8, 5, 1, 18, 15, 11, 17, 7, 6, 16, 14, 9, 13, 10, 12, 3, 2, 4, 20, 19, 8, 5, 1, 18, 15, 11, 17, 7, 6, 16, 14, 9, 13, 10, 12, 3, 2, 4, 20, 19, 8, 5, 1, 18, 15, 11, 17, 7, 6, 16, 14, 9, 13, 10, 12, 3, 2, 4, 20, 19, 8, 5, 1, 18, 15, 11, 17, 7, 6, 16, 14, 13, 9, 10, 12, 3, 2, 4, 20, 19, 8, 5, 1, 18, 15, 11, 17, 7, 6, 16, 14, 9, 13, 10, 12, 3, 2, 4, 20, 19, 8, 5, 1, 18, 15, 11, 17, 7, 6]
bestever    1467    in generation 3936
[16, 14, 13, 9, 10, 12, 2, 3, 4, 20, 19, 8, 5, 1, 18, 15, 11, 17, 7, 6, 16, 14, 13, 9, 10, 12, 3, 16, 14, 13, 9, 2, 4, 20, 19, 8, 5, 1, 18, 15, 11, 17, 7, 6, 16, 14, 13, 9, 10, 12, 3, 2, 4, 20, 19, 8, 5, 1, 18, 15, 11, 17, 7, 6, 10, 12, 3, 2, 4, 20, 19, 8, 5, 1, 18, 15, 11, 17, 7, 6, 16, 14, 13, 9, 10, 12, 3, 2, 4, 20, 19, 8, 5, 1, 18, 15, 11, 17, 7, 6, 16, 14, 9, 13, 10, 12, 3, 2, 4, 20, 19, 8, 5, 1, 18, 15, 11, 17, 7, 6, 16, 14, 9, 13, 10, 12, 3, 2, 4, 20, 19, 8, 5, 1, 18, 15, 11, 17, 7, 6, 16, 14, 9, 13, 10, 12, 3, 2, 4, 20, 19, 8, 5, 1, 18, 15, 11, 17, 7, 6, 16, 14, 13, 9, 10, 12, 3, 2, 4, 20, 19, 8, 5, 1, 18, 15, 11, 17, 7, 6, 16, 14, 9, 13, 10, 12, 3, 2, 4, 20, 19, 8, 5, 1, 18, 15, 11, 17, 7, 6]
bestever    1463    in generation 4096
[16, 14, 13, 9, 10, 12, 2, 3, 4, 20, 19, 8, 5, 1, 18, 11, 15, 17, 7, 6, 16, 14, 13, 9, 10, 12, 3, 2, 4, 20, 19, 8, 5, 1, 18, 11, 15, 17, 7, 6, 16, 14, 13, 9, 10, 12, 3, 2, 4, 20, 19, 8, 5, 1, 18, 11, 15, 17, 7, 6, 16, 14, 13, 9, 10, 12, 3, 2, 4, 20, 19, 8, 5, 1, 18, 11, 15, 17, 7, 6, 16, 14, 13, 9, 10, 12, 3, 2, 4, 20, 19, 8, 5, 1, 18, 11, 15, 17, 7, 6, 16, 14, 9, 13, 10, 12, 3, 2, 4, 20, 19, 8, 5, 1, 18, 11, 15, 17, 7, 6, 16, 14, 9, 13, 10, 12, 3, 2, 4, 20, 19, 8, 5, 1, 18, 11, 15, 17, 7, 6, 16, 14, 9, 13, 10, 12, 3, 2, 4, 20, 19, 8, 5, 1, 18, 11, 15, 17, 7, 6, 16, 14, 13, 9, 10, 12, 3, 2, 4, 20, 19, 8, 5, 1, 18, 11, 15, 17, 7, 6, 16, 14, 9, 13, 10, 12, 3, 2, 4, 20, 19, 8, 5, 1, 18, 11, 15, 17, 7, 6]
bestever    1462    in generation 4308
[16, 14, 13, 9, 10, 12, 2, 20, 4, 19, 3, 8, 5, 1, 18, 11, 15, 17, 7, 6, 16, 14, 13, 9, 10, 12, 2, 4, 20, 19, 3, 8, 5, 1, 18, 11, 15, 17, 7, 6, 16, 14, 13, 9, 10, 12, 2, 20, 4, 19, 3, 8, 5, 1, 18, 11, 15, 17, 7, 6, 16, 14, 13, 9, 10, 12, 2, 20, 4, 19, 3, 8, 5, 1, 18, 11, 15, 17, 7, 6, 16, 14, 13, 9, 10, 12, 2, 20, 4, 19, 3, 8, 5, 1, 18, 11, 15, 17, 7, 6, 16, 14, 9, 13, 10, 12, 2, 20, 4, 19, 3, 8, 5, 1, 18, 11, 15, 17, 7, 6, 16, 14, 9, 13, 10, 12, 2, 20, 4, 19, 3, 8, 5, 1, 18, 11, 15, 17, 7, 6, 16, 14, 9, 13, 10, 12, 2, 4, 20, 19, 3, 8, 5, 1, 18, 11, 15, 17, 7, 6, 16, 14, 13, 9, 10, 12, 2, 4, 20, 19, 3, 8, 5, 1, 18, 11, 15, 17, 7, 6, 16, 14, 13, 9, 10, 12, 2, 4, 20, 19, 3, 8, 5, 1, 18, 11, 15, 17, 7, 6]
bestever    1452    in generation 4423
[16, 14, 13, 9, 10, 12, 2, 20, 4, 19, 8, 3, 5, 1, 18, 11, 15, 17, 7, 6, 16, 14, 13, 9, 10, 12, 2, 4, 20, 19, 8, 3, 5, 1, 18, 11, 15, 17, 7, 6, 16, 14, 13, 9, 10, 12, 2, 20, 4, 19, 8, 3, 5, 1, 18, 11, 15, 17, 7, 6, 16, 14, 13, 9, 10, 12, 2, 20, 4, 19, 8, 3, 5, 1, 18, 11, 15, 17, 7, 6, 16, 14, 13, 9, 10, 12, 2, 20, 4, 19, 8, 3, 5, 1, 18, 11, 15, 17, 7, 6, 16, 14, 9, 13, 10, 12, 2, 20, 4, 19, 8, 3, 5, 1, 18, 11, 15, 17, 7, 6, 16, 14, 9, 13, 10, 12, 2, 20, 4, 19, 8, 3, 5, 1, 18, 11, 15, 17, 7, 6, 16, 14, 9, 13, 10, 12, 2, 4, 20, 19, 8, 3, 5, 1, 18, 11, 15, 17, 7, 6, 16, 14, 13, 9, 10, 12, 2, 4, 20, 19, 8, 3, 5, 1, 18, 11, 15, 17, 7, 6, 16, 14, 13, 9, 10, 12, 2, 4, 20, 19, 8, 3, 5, 1, 18, 11, 15, 17, 7, 6]
bestever    1451    in generation 4676
[16, 14, 13, 9, 10, 2, 20, 4, 12, 19, 8, 3, 5, 1, 18, 11, 15, 17, 7, 6, 16, 14, 13, 9, 10, 2, 4, 20, 12, 19, 8, 3, 5, 1, 18, 11, 15, 17, 7, 6, 16, 14, 13, 9, 10, 2, 20, 4, 12, 19, 8, 3, 5, 1, 18, 11, 15, 17, 7, 6, 16, 14, 13, 9, 10, 2, 4, 20, 12, 19, 8, 3, 5, 1, 18, 11, 15, 17, 7, 6, 16, 14, 13, 9, 10, 2, 4, 20, 12, 19, 8, 3, 5, 1, 18, 11, 15, 17, 7, 6, 16, 14, 9, 13, 10, 2, 20, 4, 12, 19, 8, 3, 5, 1, 18, 11, 15, 17, 7, 6, 16, 14, 9, 13, 10, 2, 20, 4, 12, 19, 8, 3, 5, 1, 18, 11, 15, 17, 7, 6, 16, 14, 13, 9, 10, 2, 4, 20, 12, 19, 8, 3, 5, 1, 18, 11, 15, 17, 7, 6, 16, 14, 13, 9, 10, 2, 4, 20, 12, 19, 8, 3, 5, 1, 18, 11, 15, 17, 7, 6, 16, 14, 13, 9, 10, 2, 4, 20, 12, 19, 8, 3, 5, 1, 18, 11, 15, 17, 7, 6]
bestever    1450    in generation 5726
[16, 14, 13, 9, 10, 4, 20, 2, 12, 19, 8, 5, 3, 1, 18, 11, 15, 17, 7, 6, 16, 14, 13, 9, 10, 20, 4, 2, 12, 19, 8, 5, 3, 1, 18, 11, 15, 17, 7, 6, 16, 14, 13, 9, 10, 4, 20, 2, 12, 19, 8, 5, 3, 1, 18, 11, 15, 17, 7, 6, 16, 14, 13, 9, 10, 4, 20, 2, 12, 19, 8, 5, 3, 1, 18, 11, 15, 17, 7, 6, 16, 14, 13, 9, 10, 4, 20, 2, 12, 19, 8, 5, 3, 1, 18, 11, 15, 17, 7, 6, 16, 14, 13, 9, 10, 4, 20, 2, 12, 19, 8, 5, 3, 1, 18, 11, 15, 17, 7, 6, 16, 14, 13, 9, 10, 4, 20, 2, 12, 19, 8, 5, 3, 1, 18, 11, 15, 17, 7, 6, 16, 14, 13, 9, 10, 20, 4, 2, 12, 19, 8, 5, 3, 1, 18, 11, 15, 17, 7, 6, 16, 14, 13, 9, 10, 20, 4, 2, 12, 19, 8, 5, 3, 1, 18, 11, 15, 17, 7, 6, 16, 14, 13, 9, 10, 4, 20, 2, 12, 19, 8, 5, 3, 1, 18, 11, 15, 17, 7, 6]
bestever    1447    in generation 5832
[16, 14, 13, 10, 9, 4, 20, 2, 12, 19, 8, 5, 3, 1, 18, 11, 15, 17, 7, 6, 16, 14, 13, 10, 9, 20, 4, 2, 12, 19, 8, 5, 3, 1, 18, 11, 15, 17, 7, 6, 16, 14, 13, 10, 9, 4, 20, 2, 12, 19, 8, 5, 3, 1, 18, 11, 15, 17, 7, 6, 16, 14, 13, 10, 9, 4, 20, 2, 12, 19, 8, 5, 3, 1, 18, 11, 15, 17, 7, 6, 16, 14, 13, 10, 9, 4, 20, 2, 12, 19, 8, 5, 3, 1, 18, 11, 15, 17, 7, 6, 16, 14, 13, 10, 9, 4, 20, 2, 12, 19, 8, 5, 3, 1, 18, 11, 15, 17, 7, 6, 16, 14, 13, 10, 9, 20, 4, 2, 12, 19, 8, 5, 3, 1, 18, 11, 15, 17, 7, 6, 16, 14, 13, 10, 9, 20, 4, 2, 12, 19, 8, 5, 3, 1, 18, 11, 15, 17, 7, 6, 16, 14, 13, 10, 9, 20, 4, 2, 12, 19, 8, 5, 3, 1, 18, 11, 15, 17, 7, 6, 14, 16, 13, 10, 9, 4, 20, 2, 12, 19, 8, 5, 3, 1, 18, 11, 15, 17, 7, 6]
bestever    1445    in generation 5999
[16, 14, 13, 10, 9, 8, 4, 20, 2, 12, 19, 5, 3, 1, 18, 11, 15, 17, 7, 6, 16, 14, 13, 10, 9, 8, 20, 4, 2, 12, 19, 5, 3, 1, 18, 11, 15, 17, 7, 6, 16, 14, 13, 10, 9, 8, 4, 20, 2, 12, 19, 5, 3, 1, 18, 11, 15, 17, 7, 6, 16, 14, 13, 10, 9, 8, 4, 20, 2, 12, 19, 5, 3, 1, 18, 11, 15, 17, 7, 6, 16, 14, 13, 10, 9, 8, 4, 20, 2, 12, 19, 5, 3, 1, 18, 11, 15, 17, 7, 6, 16, 14, 13, 10, 9, 8, 4, 20, 2, 12, 19, 5, 3, 1, 18, 11, 15, 17, 7, 6, 16, 14, 13, 10, 9, 8, 20, 4, 2, 12, 19, 5, 3, 1, 18, 11, 15, 17, 7, 6, 16, 14, 13, 10, 9, 8, 20, 4, 2, 12, 19, 5, 3, 1, 18, 11, 15, 17, 7, 6, 16, 14, 13, 10, 9, 8, 20, 4, 2, 12, 19, 5, 3, 1, 18, 11, 15, 17, 7, 6, 14, 16, 13, 10, 9, 8, 4, 20, 2, 12, 19, 5, 18, 1, 11, 3, 15, 17, 7, 6]
